Total weight: 1538.298840699857
Route 1: 0 69 88 45 5 3 1 70 0 
Route 2: 0 90 82 9 10 53 0 
Route 3: 0 96 94 71 54 81 0 
Route 4: 0 72 39 38 41 61 68 0 
Route 5: 0 11 15 47 14 12 78 0 
Route 6: 0 2 8 7 79 73 0 
Route 7: 0 95 63 85 76 51 84 56 66 91 80 0 
Route 8: 0 98 60 6 46 4 100 55 0 
Route 9: 0 65 83 52 86 57 0 
Route 10: 0 42 44 40 36 35 37 43 0 
Route 11: 0 17 16 13 75 97 74 0 
Route 12: 0 64 19 18 21 23 49 22 20 24 0 
Route 13: 0 67 31 29 27 26 28 34 50 93 0 
Route 14: 0 92 62 33 30 32 89 0 
Route 15: 0 99 87 59 58 77 25 48 0 
